20
2
20131
94 185
false
0.25
16 27 9 22 21 13 25 41 4 22 9 18 14 35 20 46 30 2 43 4
42 50 43 28 20 5 42 16 7 33 36 36 21 19 31 43 22 1 26 15
54 9 48 82 81 2 99 19 77 15 6 14 23 29 82 6 80 74 84 96
0 0 0 0 79 91 91 0 73 0 0 0 0 9 0 0 67 44 0 0
0 0 0 0 56 37 74 0 0 0 75 0 0 0 0 83 0 0 0
0 98 0 55 7 44 0 0 0 68 59 0 0 0 0 26 3 27
0 0 35 55 0 49 0 0 0 0 0 0 41 55 0 0 0
0 0 0 0 0 0 0 0 0 0 0 0 0 0 0 0
0 0 0 39 2 0 24 0 0 0 0 19 0 0 15
0 0 67 0 0 42 24 0 0 0 0 0 0 0
0 96 0 0 0 0 0 0 56 0 0 0 0
0 0 25 0 0 0 0 47 56 0 23 0
0 0 0 0 0 18 91 77 0 0 0
0 99 0 0 35 0 0 63 0 0
0 0 0 0 0 4 0 0 0
0 0 0 43 0 40 0 0
0 0 3 0 0 0 0
0 0 0 0 0 28
0 0 23 14 0
0 0 92 0
0 50 0
0 0
0 0 0 0 69 0 0 60 0 86 78 0 0 0 0 0 0 0 0
0 0 0 0 0 0 0 0 0 0 0 0 0 0 0 0 0 35
0 0 0 0 0 0 0 28 0 0 83 0 62 0 0 34 79
0 7 0 0 76 25 93 0 0 0 0 35 0 70 19 0
0 0 0 0 0 0 0 0 0 0 0 0 65 0 97
0 0 52 80 0 0 48 0 0 40 0 0 13 0
0 0 0 7 87 0 0 0 0 29 0 0 0
0 0 0 81 0 0 0 0 0 0 0 46
0 0 0 26 0 0 0 34 71 0 58
0 14 0 0 59 0 37 0 15 40
0 0 87 0 0 92 0 0 0
0 0 0 0 32 0 0 0
0 0 97 0 0 0 0
0 0 24 91 57 0
0 0 22 3 0
0 26 0 0
0 0 82
0 0
0
0 0 0 86 69 71 0 0 0 7 0 0 99 74 0 0 0 13
0 0 0 0 0 0 0 98 0 0 0 0 0 31 0 0 0
0 7 0 0 0 0 0 0 0 0 0 80 0 0 0 0
0 22 0 0 0 0 81 72 0 0 0 0 0 0 0
0 96 0 0 0 74 0 9 0 0 0 0 0 0
0 15 0 0 0 0 88 0 0 0 0 2 0
0 39 0 0 0 0 0 0 0 0 42 32
0 49 0 41 0 0 0 0 0 32 0
0 0 78 0 0 0 0 46 56 0
0 0 6 0 0 0 0 0 31
0 0 0 0 72 0 0 7
0 0 0 84 0 0 0
0 0 50 0 0 0
0 37 0 28 0
0 0 28 0
0 0 0
0 0
0
0 46 0 63 49 0 0 0 0 0 0 0 0 57 13 0 0
0 0 0 0 0 90 0 0 0 0 82 8 0 0 98 0
0 4 0 20 0 0 46 74 36 0 0 0 0 0 0
0 0 0 0 0 0 19 0 0 0 12 0 0 0
0 20 0 0 0 0 0 0 0 100 10 0 0
0 0 0 0 0 0 0 35 0 0 0 0
0 0 91 0 0 0 75 0 0 0 0
0 0 0 0 0 0 0 53 0 0
0 84 0 49 0 0 0 0 0
0 0 0 0 0 0 62 0
0 27 0 0 0 0 18
0 68 0 0 0 0
0 0 0 2 0
0 0 0 0
0 35 99
0 5
0
0 0 0 0 0 49 48 0 0 5 0 0 0 0 0 0
0 19 0 27 0 68 0 0 0 59 0 61 48 0 0
0 0 12 0 0 0 0 0 0 0 0 0 0 0
0 94 0 0 70 0 0 29 0 0 0 83 0
0 0 0 0 0 54 0 58 8 0 0 92
0 0 0 0 0 0 0 0 48 0 0
0 30 0 0 0 0 48 0 0 39
0 0 21 0 0 15 68 0 0
0 0 0 0 0 39 0 0
0 0 0 0 0 0 0
0 0 0 7 0 0
0 0 0 19 0
0 0 0 0
0 74 9
0 0
0
0 0 8 93 0 0 0 10 0 0 0 92 0 0 0
0 0 0 0 0 0 0 79 0 0 0 0 51 0
0 0 0 0 34 64 0 12 71 0 0 61 31
0 88 66 0 30 0 0 93 0 0 0 0
0 0 5 0 0 0 0 81 0 0 0
0 0 0 97 0 0 0 0 30 0
0 80 94 0 3 0 0 21 0
0 0 0 0 0 57 0 0
0 0 0 20 0 0 0
0 0 0 27 0 0
0 0 28 57 0
0 0 69 0
0 0 70
0 0
0
0 0 0 77 4 37 0 0 0 0 35 0 0 0
0 0 9 82 0 100 0 0 0 0 0 31 0
0 0 0 0 0 0 95 0 0 0 10 0
0 97 70 0 93 0 83 30 0 0 0
0 0 0 35 16 77 35 0 0 0
0 0 1 0 89 22 0 0 0
0 0 0 0 0 0 0 0
0 0 0 0 47 0 0
0 0 0 0 88 22
0 10 0 0 5
0 0 0 0
0 0 0
0 0
0
0 0 0 0 20 14 0 56 0 0 0 0 0
0 0 0 0 0 0 27 0 0 0 0 0
0 0 65 68 0 0 0 0 0 99 39
0 0 0 0 89 0 0 82 0 0
0 0 0 9 0 0 0 74 31
0 0 0 0 76 0 0 0
0 0 25 0 0 0 0
0 0 0 0 0 0
0 19 66 0 0
0 0 5 0
0 0 78
0 0
0
0 0 0 34 0 0 0 0 0 0 0 0
0 0 36 0 0 0 0 0 0 0 19
0 0 42 0 0 0 95 0 0 0
0 0 98 0 0 0 0 0 0
0 0 0 97 0 63 0 49
0 0 0 48 0 0 0
0 0 0 0 0 0
0 0 0 0 0
0 31 0 26
0 0 64
0 0
0
0 0 0 0 0 0 98 0 0 0 43
0 0 90 11 96 0 41 0 0 0
0 80 94 0 26 0 0 0 0
0 0 83 0 0 0 0 73
0 0 0 0 0 0 0
0 0 26 0 0 0
0 0 92 0 0
0 45 79 0
0 6 26
0 0
0
0 3 48 0 0 0 0 0 0 0
0 40 0 0 0 0 0 46 80
0 0 0 0 0 0 0 52
0 0 0 84 0 0 28
0 13 0 0 0 0
0 0 85 0 28
0 0 0 0
0 0 0
0 0
0
0 84 0 29 0 0 0 0 76
0 0 0 10 100 0 8 0
0 5 0 80 0 76 0
0 0 0 56 0 0
0 0 0 0 0
0 0 0 0
0 0 0
0 0
0
0 0 0 0 0 0 0 37
0 0 0 0 0 71 0
0 0 0 0 0 0
0 0 61 28 0
0 0 54 0
0 70 3
0 0
0
0 0 100 0 0 73 0
0 69 0 0 17 0
0 30 88 0 0
0 0 0 0
0 0 83
0 0
0
0 0 0 0 0 0
0 41 0 0 0
0 0 0 0
0 54 0
0 0
0
0 59 34 0 0
0 0 0 0
0 0 0
0 0
0
0 0 0 0
0 0 0
0 0
0
0 0 0
0 0
0
0 0
0
0
3059 2479 2439 2359 2620 2809 2279 2434 2960 2618 2880 3143 2758 2010 1792 2652 2743 2612 2151 1911
132.01041666666666 70.69740740740741 163.86046511627907 95.73863636363637 127.88095238095238 388.9384615384615 72.71095238095238 105.7454268292683 581.4285714285714 99.16666666666666 200.0 130.95833333333334 164.16666666666669 81.60902255639098 73.70322580645161 59.663296258847325 108.05757575757576 1959.0 66.37701252236135 302.575
